100
2513
50
0 2
0 4
0 5
0 15
0 16
0 17
0 18
0 20
0 21
0 24
0 27
0 29
0 30
0 33
0 34
0 35
0 36
0 38
0 43
0 45
0 48
0 49
0 50
0 52
0 54
0 56
0 58
0 59
0 60
0 62
0 63
0 64
0 65
0 69
0 72
0 74
0 77
0 78
0 80
0 81
0 84
0 85
0 86
0 90
0 91
0 92
0 95
0 97
0 99
1 3
1 4
1 5
1 8
1 9
1 11
1 12
1 14
1 15
1 16
1 17
1 22
1 23
1 25
1 26
1 28
1 33
1 37
1 39
1 40
1 41
1 42
1 43
1 45
1 47
1 49
1 50
1 53
1 55
1 59
1 60
1 61
1 65
1 66
1 70
1 71
1 74
1 79
1 80
1 81
1 84
1 85
1 86
1 87
1 88
1 91
1 96
1 97
1 99
2 3
2 4
2 5
2 6
2 9
2 10
2 13
2 17
2 19
2 20
2 25
2 29
2 31
2 32
2 33
2 38
2 40
2 41
2 42
2 44
2 46
2 47
2 49
2 53
2 54
2 57
2 58
2 64
2 65
2 67
2 68
2 69
2 74
2 76
2 77
2 79
2 80
2 82
2 83
2 86
2 87
2 89
2 90
2 92
2 94
2 98
3 5
3 9
3 10
3 11
3 17
3 18
3 24
3 26
3 27
3 29
3 30
3 35
3 36
3 38
3 39
3 40
3 45
3 47
3 52
3 53
3 54
3 55
3 57
3 58
3 60
3 66
3 68
3 71
3 72
3 73
3 74
3 75
3 77
3 78
3 80
3 81
3 84
3 85
3 88
3 89
3 92
3 93
3 94
3 95
3 97
4 6
4 10
4 19
4 21
4 24
4 26
4 27
4 28
4 29
4 33
4 36
4 37
4 38
4 40
4 41
4 43
4 47
4 50
4 51
4 53
4 55
4 56
4 57
4 58
4 59
4 60
4 61
4 65
4 68
4 73
4 74
4 75
4 77
4 78
4 79
4 80
4 81
4 82
4 84
4 86
4 87
4 89
4 91
4 92
4 94
4 96
4 99
5 6
5 9
5 11
5 13
5 15
5 16
5 19
5 21
5 23
5 25
5 26
5 27
5 29
5 34
5 37
5 38
5 39
5 40
5 41
5 42
5 43
5 44
5 47
5 48
5 50
5 51
5 53
5 54
5 56
5 59
5 63
5 65
5 67
5 68
5 69
5 71
5 72
5 77
5 84
5 85
5 86
5 88
5 93
5 95
5 96
5 97
5 98
5 99
6 7
6 8
6 10
6 11
6 12
6 18
6 22
6 23
6 25
6 26
6 27
6 32
6 33
6 35
6 41
6 46
6 47
6 49
6 54
6 55
6 57
6 58
6 59
6 60
6 61
6 62
6 63
6 67
6 68
6 69
6 70
6 71
6 74
6 75
6 78
6 79
6 82
6 83
6 85
6 89
6 92
6 96
6 98
6 99
7 10
7 11
7 13
7 14
7 15
7 17
7 18
7 22
7 23
7 27
7 29
7 33
7 34
7 35
7 38
7 40
7 43
7 47
7 48
7 49
7 50
7 53
7 55
7 56
7 57
7 58
7 60
7 63
7 66
7 67
7 70
7 71
7 73
7 76
7 82
7 83
7 86
7 87
7 91
7 92
7 93
7 95
8 10
8 12
8 16
8 17
8 19
8 23
8 24
8 26
8 28
8 29
8 32
8 34
8 35
8 36
8 38
8 39
8 41
8 42
8 43
8 44
8 46
8 47
8 49
8 50
8 51
8 52
8 55
8 56
8 61
8 62
8 64
8 65
8 67
8 68
8 69
8 70
8 74
8 77
8 79
8 82
8 84
8 85
8 87
8 88
8 90
8 91
8 92
8 93
8 94
8 95
8 97
8 99
9 11
9 12
9 13
9 14
9 22
9 24
9 25
9 26
9 27
9 28
9 30
9 32
9 33
9 37
9 39
9 41
9 42
9 43
9 44
9 45
9 46
9 50
9 51
9 52
9 53
9 54
9 55
9 58
9 60
9 61
9 69
9 70
9 72
9 75
9 77
9 79
9 80
9 85
9 89
9 95
9 96
9 97
9 98
10 11
10 13
10 15
10 19
10 20
10 22
10 25
10 26
10 28
10 29
10 30
10 32
10 33
10 34
10 35
10 36
10 37
10 38
10 39
10 41
10 43
10 47
10 52
10 54
10 58
10 64
10 71
10 72
10 74
10 75
10 77
10 78
10 80
10 82
10 86
10 87
10 89
10 92
10 93
10 94
10 96
10 98
10 99
11 15
11 17
11 18
11 20
11 23
11 24
11 25
11 26
11 28
11 29
11 31
11 32
11 33
11 36
11 37
11 38
11 41
11 42
11 43
11 48
11 49
11 52
11 56
11 57
11 58
11 59
11 60
11 61
11 63
11 65
11 67
11 68
11 70
11 74
11 77
11 78
11 79
11 80
11 81
11 83
11 85
11 86
11 87
11 88
11 90
11 91
11 93
11 96
11 97
11 98
11 99
12 18
12 20
12 21
12 23
12 24
12 27
12 28
12 31
12 32
12 33
12 37
12 39
12 40
12 41
12 43
12 44
12 45
12 46
12 48
12 49
12 50
12 51
12 53
12 58
12 59
12 61
12 62
12 64
12 66
12 70
12 73
12 74
12 75
12 78
12 79
12 81
12 83
12 87
12 88
12 89
12 93
12 94
12 98
13 18
13 19
13 21
13 23
13 25
13 26
13 28
13 29
13 30
13 31
13 32
13 33
13 34
13 35
13 36
13 40
13 43
13 48
13 49
13 50
13 53
13 55
13 57
13 58
13 61
13 64
13 68
13 69
13 71
13 72
13 73
13 74
13 75
13 76
13 77
13 78
13 80
13 87
13 89
13 90
13 91
13 92
13 94
13 97
13 98
14 16
14 19
14 21
14 22
14 23
14 24
14 25
14 28
14 29
14 30
14 34
14 36
14 37
14 38
14 39
14 40
14 42
14 43
14 45
14 48
14 49
14 54
14 55
14 56
14 60
14 62
14 65
14 67
14 68
14 71
14 72
14 73
14 76
14 78
14 80
14 83
14 84
14 87
14 88
14 92
14 94
14 97
15 17
15 19
15 21
15 23
15 24
15 27
15 28
15 29
15 30
15 34
15 35
15 36
15 37
15 39
15 41
15 43
15 45
15 48
15 53
15 56
15 57
15 58
15 59
15 60
15 62
15 63
15 67
15 69
15 71
15 73
15 74
15 78
15 80
15 82
15 88
15 89
15 92
15 93
15 94
15 95
15 97
15 99
16 18
16 19
16 23
16 24
16 25
16 26
16 28
16 29
16 30
16 31
16 32
16 34
16 38
16 39
16 40
16 45
16 48
16 50
16 53
16 54
16 56
16 57
16 58
16 60
16 62
16 63
16 64
16 69
16 72
16 75
16 78
16 82
16 84
16 85
16 86
16 87
16 88
16 90
16 95
17 18
17 19
17 20
17 21
17 27
17 32
17 35
17 37
17 38
17 40
17 41
17 42
17 43
17 46
17 47
17 48
17 49
17 58
17 59
17 62
17 68
17 70
17 71
17 73
17 75
17 76
17 78
17 79
17 80
17 81
17 83
17 85
17 87
17 89
17 90
17 92
17 93
17 95
17 98
18 21
18 25
18 27
18 29
18 30
18 33
18 36
18 37
18 38
18 39
18 41
18 44
18 45
18 49
18 51
18 55
18 58
18 59
18 61
18 62
18 64
18 67
18 69
18 74
18 78
18 79
18 81
18 82
18 83
18 85
18 86
18 90
18 94
18 96
18 97
18 99
19 21
19 24
19 26
19 27
19 28
19 29
19 30
19 35
19 36
19 37
19 41
19 43
19 47
19 49
19 51
19 52
19 56
19 57
19 58
19 63
19 66
19 68
19 69
19 70
19 73
19 78
19 79
19 80
19 81
19 82
19 83
19 84
19 86
19 87
19 88
19 89
19 90
19 91
19 92
19 94
19 96
19 98
20 21
20 23
20 24
20 25
20 26
20 29
20 31
20 32
20 40
20 42
20 46
20 47
20 49
20 51
20 52
20 54
20 55
20 56
20 58
20 60
20 62
20 66
20 70
20 71
20 73
20 78
20 79
20 81
20 82
20 84
20 85
20 86
20 87
20 89
20 90
20 91
20 94
20 96
20 97
20 99
21 22
21 23
21 25
21 26
21 27
21 28
21 29
21 31
21 33
21 34
21 36
21 43
21 46
21 47
21 49
21 54
21 55
21 56
21 57
21 58
21 59
21 60
21 62
21 65
21 66
21 67
21 70
21 71
21 72
21 73
21 74
21 78
21 79
21 80
21 83
21 84
21 86
21 87
21 92
21 93
21 94
21 97
21 98
22 23
22 24
22 25
22 27
22 31
22 33
22 38
22 40
22 41
22 42
22 45
22 46
22 47
22 48
22 49
22 50
22 51
22 52
22 53
22 55
22 56
22 58
22 59
22 63
22 65
22 66
22 68
22 71
22 73
22 75
22 76
22 78
22 80
22 82
22 84
22 85
22 86
22 87
22 91
22 92
22 93
22 94
22 96
22 97
22 99
23 24
23 25
23 26
23 27
23 28
23 30
23 31
23 33
23 34
23 37
23 38
23 39
23 40
23 41
23 45
23 46
23 50
23 53
23 56
23 59
23 60
23 61
23 62
23 64
23 65
23 68
23 69
23 71
23 77
23 79
23 81
23 83
23 84
23 85
23 86
23 87
23 88
23 89
23 98
23 99
24 27
24 29
24 33
24 35
24 39
24 43
24 45
24 49
24 51
24 52
24 53
24 54
24 64
24 65
24 67
24 69
24 74
24 75
24 76
24 77
24 80
24 82
24 84
24 85
24 87
24 88
24 89
24 90
24 91
24 92
24 93
24 98
25 28
25 29
25 35
25 38
25 39
25 42
25 43
25 44
25 47
25 49
25 51
25 52
25 54
25 55
25 56
25 59
25 63
25 64
25 65
25 66
25 67
25 68
25 72
25 73
25 79
25 80
25 81
25 82
25 83
25 85
25 86
25 88
25 89
25 90
25 91
25 92
25 93
25 97
25 98
26 27
26 32
26 33
26 34
26 35
26 37
26 40
26 45
26 46
26 47
26 48
26 50
26 52
26 53
26 58
26 59
26 61
26 63
26 64
26 66
26 74
26 76
26 77
26 83
26 84
26 86
26 87
26 89
26 90
26 95
26 96
26 98
27 28
27 30
27 33
27 36
27 38
27 42
27 43
27 45
27 52
27 53
27 55
27 57
27 62
27 64
27 67
27 68
27 69
27 71
27 72
27 76
27 77
27 79
27 82
27 83
27 84
27 85
27 87
27 88
27 89
27 90
27 91
27 94
27 96
27 99
28 29
28 30
28 35
28 36
28 37
28 38
28 40
28 42
28 46
28 48
28 49
28 50
28 52
28 53
28 54
28 56
28 60
28 61
28 62
28 63
28 64
28 65
28 66
28 68
28 69
28 71
28 75
28 76
28 79
28 80
28 81
28 85
28 88
28 89
28 90
28 94
28 95
28 96
28 98
28 99
29 31
29 32
29 33
29 35
29 36
29 39
29 41
29 43
29 44
29 45
29 46
29 48
29 49
29 50
29 52
29 53
29 54
29 57
29 58
29 59
29 61
29 65
29 67
29 68
29 69
29 71
29 73
29 76
29 78
29 79
29 84
29 89
29 90
29 92
29 93
29 95
29 97
30 31
30 34
30 37
30 38
30 40
30 43
30 44
30 46
30 47
30 49
30 50
30 55
30 56
30 58
30 59
30 60
30 61
30 62
30 66
30 67
30 69
30 72
30 73
30 75
30 76
30 78
30 80
30 81
30 86
30 88
30 91
30 93
30 94
30 95
30 97
31 32
31 33
31 35
31 39
31 40
31 41
31 47
31 49
31 54
31 56
31 58
31 61
31 63
31 68
31 71
31 72
31 74
31 76
31 77
31 80
31 81
31 84
31 85
31 88
31 91
31 92
31 93
31 94
31 96
31 98
31 99
32 36
32 38
32 39
32 47
32 48
32 51
32 52
32 53
32 54
32 57
32 59
32 60
32 62
32 66
32 67
32 68
32 69
32 70
32 71
32 77
32 79
32 82
32 85
32 87
32 93
32 97
33 34
33 36
33 38
33 40
33 41
33 43
33 44
33 46
33 47
33 51
33 52
33 55
33 56
33 57
33 58
33 59
33 61
33 63
33 64
33 65
33 66
33 67
33 68
33 71
33 72
33 73
33 74
33 76
33 80
33 83
33 84
33 85
33 87
33 88
33 89
33 92
33 94
33 95
33 97
33 98
34 39
34 41
34 42
34 43
34 44
34 45
34 46
34 47
34 48
34 49
34 50
34 51
34 53
34 55
34 58
34 60
34 61
34 63
34 64
34 65
34 67
34 69
34 70
34 73
34 75
34 76
34 78
34 79
34 81
34 82
34 83
34 89
34 90
34 91
34 92
34 94
34 95
34 96
34 97
34 98
35 38
35 39
35 40
35 41
35 42
35 43
35 45
35 46
35 47
35 49
35 50
35 53
35 58
35 66
35 67
35 69
35 70
35 72
35 73
35 74
35 77
35 80
35 83
35 84
35 88
35 89
35 90
35 92
35 93
35 96
35 97
36 37
36 38
36 40
36 42
36 44
36 45
36 46
36 48
36 51
36 52
36 53
36 57
36 59
36 60
36 61
36 62
36 64
36 65
36 66
36 67
36 68
36 71
36 72
36 75
36 77
36 79
36 80
36 81
36 82
36 85
36 87
36 90
36 92
36 93
36 94
36 95
36 96
36 99
37 38
37 39
37 40
37 44
37 46
37 47
37 51
37 52
37 55
37 58
37 59
37 62
37 65
37 66
37 68
37 69
37 71
37 72
37 80
37 81
37 82
37 83
37 84
37 86
37 87
37 90
37 94
37 96
37 99
38 40
38 41
38 43
38 45
38 46
38 47
38 48
38 49
38 50
38 54
38 57
38 60
38 61
38 62
38 67
38 68
38 71
38 73
38 74
38 75
38 79
38 81
38 83
38 86
38 87
38 88
38 89
38 95
38 96
38 97
38 99
39 40
39 41
39 42
39 44
39 45
39 49
39 50
39 51
39 53
39 54
39 58
39 61
39 64
39 66
39 67
39 68
39 69
39 70
39 72
39 73
39 74
39 76
39 77
39 78
39 80
39 81
39 82
39 87
39 88
39 90
39 91
39 92
39 94
39 96
40 41
40 42
40 44
40 48
40 51
40 53
40 54
40 55
40 56
40 60
40 61
40 62
40 67
40 69
40 70
40 72
40 75
40 79
40 80
40 82
40 83
40 84
40 85
40 88
40 89
40 91
40 93
40 94
40 98
41 43
41 49
41 50
41 51
41 52
41 53
41 57
41 58
41 60
41 62
41 63
41 67
41 68
41 70
41 73
41 74
41 75
41 79
41 82
41 85
41 86
41 90
41 93
41 95
41 97
41 99
42 44
42 45
42 47
42 48
42 49
42 50
42 51
42 52
42 53
42 56
42 57
42 58
42 59
42 60
42 61
42 64
42 65
42 67
42 68
42 70
42 71
42 73
42 75
42 76
42 77
42 78
42 79
42 81
42 83
42 84
42 85
42 88
42 89
42 91
42 92
42 93
42 94
42 95
42 96
43 44
43 45
43 46
43 47
43 50
43 53
43 54
43 55
43 56
43 57
43 58
43 61
43 62
43 64
43 65
43 66
43 67
43 70
43 71
43 72
43 77
43 79
43 80
43 82
43 83
43 85
43 87
43 88
43 89
43 90
43 92
43 93
43 96
43 98
43 99
44 45
44 51
44 54
44 55
44 57
44 64
44 66
44 68
44 70
44 72
44 73
44 75
44 78
44 79
44 82
44 84
44 85
44 86
44 88
44 90
44 94
44 96
44 97
44 98
44 99
45 46
45 47
45 48
45 50
45 51
45 52
45 53
45 54
45 55
45 56
45 57
45 60
45 61
45 62
45 63
45 69
45 70
45 71
45 75
45 78
45 79
45 81
45 82
45 83
45 85
45 87
45 88
45 90
45 92
45 93
45 96
45 98
46 49
46 50
46 53
46 54
46 56
46 57
46 58
46 59
46 60
46 61
46 62
46 65
46 69
46 70
46 71
46 74
46 77
46 79
46 80
46 82
46 85
46 86
46 87
46 88
46 89
46 91
46 92
46 93
46 95
46 98
47 53
47 55
47 56
47 59
47 61
47 62
47 63
47 64
47 65
47 67
47 68
47 70
47 72
47 73
47 74
47 75
47 77
47 78
47 80
47 83
47 85
47 88
47 89
47 90
47 91
47 92
47 94
47 95
47 98
47 99
48 51
48 53
48 56
48 58
48 60
48 62
48 63
48 65
48 67
48 68
48 71
48 73
48 76
48 77
48 78
48 81
48 82
48 83
48 85
48 86
48 88
48 90
48 92
48 93
48 94
48 95
48 96
48 97
48 98
48 99
49 50
49 55
49 57
49 58
49 59
49 60
49 65
49 66
49 70
49 72
49 74
49 75
49 78
49 81
49 82
49 83
49 84
49 85
49 88
49 90
49 91
49 92
49 97
50 52
50 54
50 55
50 59
50 61
50 63
50 64
50 65
50 66
50 67
50 68
50 69
50 74
50 75
50 76
50 77
50 80
50 86
50 87
50 89
50 90
50 92
50 94
50 96
50 97
50 98
51 55
51 57
51 58
51 59
51 61
51 63
51 65
51 66
51 70
51 71
51 72
51 73
51 77
51 79
51 80
51 81
51 82
51 83
51 84
51 85
51 86
51 88
51 90
51 92
51 95
51 98
51 99
52 53
52 55
52 57
52 58
52 62
52 67
52 68
52 69
52 72
52 77
52 78
52 86
52 87
52 88
52 94
52 95
52 96
52 97
52 98
52 99
53 57
53 63
53 65
53 67
53 69
53 71
53 72
53 73
53 74
53 75
53 76
53 78
53 81
53 82
53 84
53 86
53 87
53 89
53 91
53 92
53 93
53 94
53 96
54 56
54 60
54 61
54 62
54 64
54 66
54 70
54 75
54 76
54 78
54 79
54 82
54 83
54 87
54 88
54 89
54 92
54 93
54 94
54 96
54 97
54 98
55 56
55 59
55 60
55 61
55 63
55 65
55 66
55 67
55 69
55 73
55 74
55 76
55 78
55 79
55 83
55 87
55 88
55 93
55 95
55 98
55 99
56 60
56 63
56 65
56 66
56 68
56 73
56 74
56 75
56 83
56 85
56 89
56 90
56 91
56 92
56 94
56 97
56 99
57 59
57 62
57 64
57 65
57 67
57 68
57 69
57 70
57 71
57 76
57 78
57 80
57 81
57 82
57 83
57 85
57 86
57 87
57 89
57 91
57 93
57 94
57 95
57 96
57 97
58 60
58 66
58 68
58 71
58 73
58 76
58 78
58 81
58 84
58 85
58 86
58 90
58 91
58 92
58 97
58 98
58 99
59 63
59 71
59 72
59 80
59 82
59 84
59 87
59 89
59 91
59 93
59 94
59 98
60 63
60 64
60 65
60 67
60 69
60 70
60 72
60 75
60 78
60 79
60 80
60 87
60 88
60 94
60 98
60 99
61 62
61 64
61 67
61 68
61 71
61 72
61 73
61 74
61 77
61 79
61 80
61 84
61 87
61 90
61 91
61 92
61 93
61 96
61 97
62 63
62 65
62 66
62 69
62 70
62 75
62 79
62 82
62 88
62 89
62 91
62 92
62 93
62 95
62 96
62 97
62 98
63 64
63 67
63 68
63 71
63 74
63 75
63 76
63 79
63 80
63 81
63 82
63 88
63 91
63 95
63 99
64 66
64 70
64 71
64 74
64 75
64 76
64 80
64 82
64 83
64 85
64 86
64 89
64 90
64 91
64 93
64 94
64 95
64 98
64 99
65 66
65 67
65 69
65 71
65 75
65 77
65 78
65 80
65 81
65 82
65 86
65 88
65 89
65 94
65 95
65 96
65 97
65 98
65 99
66 67
66 73
66 74
66 76
66 77
66 78
66 80
66 83
66 84
66 85
66 88
66 89
66 94
66 95
66 98
66 99
67 69
67 72
67 73
67 74
67 76
67 77
67 80
67 81
67 82
67 83
67 85
67 88
67 89
67 91
67 93
67 94
67 95
67 96
67 97
67 98
67 99
68 69
68 70
68 71
68 73
68 74
68 84
68 89
68 92
68 93
68 95
68 97
68 99
69 70
69 72
69 73
69 75
69 77
69 79
69 83
69 87
69 90
69 92
69 94
69 95
69 96
69 98
69 99
70 72
70 74
70 75
70 77
70 80
70 82
70 83
70 85
70 91
70 92
70 94
70 96
70 97
70 98
70 99
71 72
71 73
71 75
71 77
71 78
71 81
71 82
71 83
71 85
71 86
71 87
71 89
71 93
71 95
71 96
71 98
71 99
72 74
72 75
72 76
72 77
72 78
72 79
72 81
72 82
72 84
72 87
72 90
72 92
72 93
72 97
72 99
73 74
73 75
73 76
73 79
73 82
73 84
73 85
73 86
73 88
73 89
73 90
73 92
73 94
73 95
73 96
73 97
74 75
74 79
74 80
74 81
74 82
74 83
74 84
74 87
74 88
74 91
74 94
74 96
74 99
75 78
75 79
75 82
75 83
75 84
75 85
75 90
75 93
75 94
75 95
75 96
75 97
75 98
75 99
76 80
76 81
76 82
76 84
76 86
76 87
76 90
76 91
76 95
76 96
76 97
76 98
76 99
77 78
77 79
77 80
77 81
77 82
77 83
77 85
77 86
77 89
77 91
77 92
77 94
77 96
77 97
77 98
77 99
78 82
78 84
78 86
78 87
78 89
78 90
78 92
78 93
78 94
78 96
78 98
78 99
79 80
79 83
79 85
79 86
79 88
79 89
79 92
79 94
79 97
79 98
80 81
80 82
80 83
80 86
80 91
80 92
80 93
80 94
80 98
81 82
81 86
81 89
81 91
81 92
81 95
81 97
82 83
82 84
82 85
82 86
82 87
82 90
82 92
82 95
82 97
83 85
83 87
83 88
83 89
83 91
83 92
83 93
83 94
83 95
83 96
83 97
83 98
83 99
84 86
84 87
84 93
84 94
84 96
84 98
84 99
85 87
85 88
85 89
85 90
85 91
85 94
85 95
85 96
85 98
85 99
86 89
86 91
86 93
86 95
86 99
87 88
87 90
87 92
87 95
87 96
88 89
88 92
88 96
88 97
89 90
89 91
89 95
89 98
90 92
90 93
90 97
91 92
91 93
92 93
92 96
92 98
93 95
93 97
93 98
94 95
95 96
95 98
96 97
96 98
98 99
37 43
7 47
91 99
20 69
58 98
12 36
2 93
33 54
0 16
62 71
59 60
65 78
6 8
50 97
72 83
76 80
39 92
44 79
3 74
63 94
56 77
14 30
73 89
27 88
5 13
22 82
32 41
53 67
25 81
34 96
38 49
11 57
9 95
26 35
21 31
4 15
45 68
29 52
19 86
70 85
17 48
23 51
10 64
18 90
1 87
66 84
61 75
24 40
28 55
42 46
